benchmarks_vrp/CMT5/no_cluster/CMT5_2.vrp
NAME: CMT5_2
TYPE: CVRP
COMMENT: 1291.29 - Cluster Nr.2
DIMENSION: 17
CAPACITY: 200
EDGE_WEIGHT_TYPE: EUC_2D
NODE_COORD_TYPE: TWOD_COORDS
NODE_COORD_SECTION: 
15 32 22
5 23 3
1 21 10
17 25 21
4 30 5
8 28 18
3 32 12
6 30 15
2 36 16
12 22 22
10 26 13
7 35 17
11 35 35
16 35 16
14 27 23
13 24 12
9 22 22
DEPOT_SECTION: 
11
-1
DEMAND_SECTION: 
2 10
1 13
3 7
14 3
7 7
5 7
12 18
6 16
4 8
8 26
13 5
17 12
11 0
15 9
16 29
9 2
10 12
EOF
