benchmarks_vrp/CMT5/no_cluster/CMT5_2.tour
NAME: CMT5_2 solution
TYPE: TOUR
TOUR_SECTION:
11 14 12 9 17 8 6 10 13 1 5 4 3 16 2 7 15 -1
-1
EOF